p tw 392 27440 1 
0 2 
0 3 
0 4 
0 5 
0 6 
0 7 
0 8 
0 9 
0 10 
0 11 
0 12 
0 13 
0 14 
0 15 
0 16 
0 17 
0 18 
0 19 
0 20 
0 21 
0 22 
0 23 
0 24 
0 25 
0 26 
0 27 
0 28 
0 29 
0 30 
0 31 
0 32 
0 33 
0 34 
0 35 
0 36 
0 37 
0 38 
0 39 
0 40 
0 41 
0 42 
0 43 
0 44 
0 45 
0 46 
0 47 
0 48 
0 49 
0 50 
0 51 
0 52 
0 53 
0 54 
0 55 
0 56 
0 57 
0 58 
0 59 
0 60 
0 61 
0 62 
0 63 
0 64 
0 65 
0 66 
0 67 
0 68 
0 69 
0 70 
0 71 
0 72 
0 73 
0 74 
0 75 
0 76 
0 77 
0 78 
0 79 
0 80 
0 81 
0 82 
0 83 
0 84 
0 85 
0 86 
0 87 
0 88 
0 89 
0 90 
0 91 
0 92 
0 93 
0 94 
0 95 
0 96 
0 97 
0 98 
0 99 
0 100 
0 101 
0 102 
0 103 
0 104 
0 105 
0 106 
0 107 
0 108 
0 109 
0 110 
0 111 
0 112 
0 113 
0 114 
0 115 
0 116 
0 117 
0 118 
0 119 
0 120 
0 121 
0 122 
0 123 
0 124 
0 125 
0 126 
0 127 
0 128 
0 129 
0 130 
0 131 
0 132 
0 133 
0 134 
0 135 
0 136 
0 137 
0 138 
0 139 
0 140 
0 141 
0 142 
0 143 
0 144 
0 145 
0 146 
0 147 
0 148 
0 149 
0 150 
0 151 
0 152 
0 153 
0 154 
0 155 
0 156 
0 157 
0 158 
0 159 
0 160 
0 161 
0 162 
0 163 
0 164 
0 165 
0 166 
0 167 
0 168 
0 169 
0 170 
0 171 
0 172 
0 173 
0 174 
0 175 
0 176 
0 177 
0 178 
0 179 
0 180 
0 181 
0 182 
0 183 
0 184 
0 185 
0 186 
0 187 
0 188 
0 189 
0 190 
0 191 
0 192 
0 193 
0 194 
0 195 
0 196 
1 197 
1 198 
1 199 
1 200 
1 201 
1 202 
1 203 
1 204 
1 205 
1 206 
1 207 
1 208 
1 209 
1 210 
1 211 
1 212 
1 213 
1 214 
1 215 
1 216 
1 217 
1 218 
1 219 
1 220 
1 221 
1 222 
1 223 
1 224 
1 225 
1 226 
1 227 
1 228 
1 229 
1 230 
1 231 
1 232 
1 233 
1 234 
1 235 
1 236 
1 237 
1 238 
1 239 
1 240 
1 241 
1 242 
1 243 
1 244 
1 245 
1 246 
1 247 
1 248 
1 249 
1 250 
1 251 
1 252 
1 253 
1 254 
1 255 
1 256 
1 257 
1 258 
1 259 
1 260 
1 261 
1 262 
1 263 
1 264 
1 265 
1 266 
1 267 
1 268 
1 269 
1 270 
1 271 
1 272 
1 273 
1 274 
1 275 
1 276 
1 277 
1 278 
1 279 
1 280 
1 281 
1 282 
1 283 
1 284 
1 285 
1 286 
1 287 
1 288 
1 289 
1 290 
1 291 
1 292 
1 293 
1 294 
1 295 
1 296 
1 297 
1 298 
1 299 
1 300 
1 301 
1 302 
1 303 
1 304 
1 305 
1 306 
1 307 
1 308 
1 309 
1 310 
1 311 
1 312 
1 313 
1 314 
1 315 
1 316 
1 317 
1 318 
1 319 
1 320 
1 321 
1 322 
1 323 
1 324 
1 325 
1 326 
1 327 
1 328 
1 329 
1 330 
1 331 
1 332 
1 333 
1 334 
1 335 
1 336 
1 337 
1 338 
1 339 
1 340 
1 341 
1 342 
1 343 
1 344 
1 345 
1 346 
1 347 
1 348 
1 349 
1 350 
1 351 
1 352 
1 353 
1 354 
1 355 
1 356 
1 357 
1 358 
1 359 
1 360 
1 361 
1 362 
1 363 
1 364 
1 365 
1 366 
1 367 
1 368 
1 369 
1 370 
1 371 
1 372 
1 373 
1 374 
1 375 
1 376 
1 377 
1 378 
1 379 
1 380 
1 381 
1 382 
1 383 
1 384 
1 385 
1 386 
1 387 
1 388 
1 389 
1 390 
1 391 
1 392 
1 205 
1 217 
1 245 
1 254 
1 263 
1 265 
1 266 
1 274 
1 281 
1 285 
1 296 
1 352 
1 357 
1 382 
2 204 
2 206 
2 222 
2 226 
2 228 
2 235 
2 289 
2 294 
2 295 
2 306 
2 308 
2 317 
2 344 
2 372 
3 212 
3 247 
3 256 
3 269 
3 278 
3 298 
3 310 
3 313 
3 323 
3 336 
3 337 
3 338 
3 345 
3 373 
4 204 
4 222 
4 226 
4 228 
4 230 
4 235 
4 294 
4 295 
4 305 
4 308 
4 317 
4 341 
4 344 
4 372 
5 201 
5 202 
5 219 
5 247 
5 248 
5 278 
5 298 
5 299 
5 312 
5 313 
5 336 
5 337 
5 338 
5 368 
6 204 
6 206 
6 211 
6 222 
6 228 
6 235 
6 236 
6 289 
6 290 
6 294 
6 308 
6 317 
6 334 
6 341 
7 209 
7 214 
7 225 
7 284 
7 288 
7 309 
7 325 
7 330 
7 340 
7 348 
7 354 
7 371 
7 375 
7 384 
8 199 
8 207 
8 208 
8 210 
8 216 
8 237 
8 257 
8 273 
8 287 
8 291 
8 314 
8 326 
8 342 
8 350 
9 203 
9 233 
9 234 
9 245 
9 254 
9 265 
9 274 
9 276 
9 281 
9 318 
9 357 
9 359 
9 364 
9 389 
10 205 
10 215 
10 217 
10 233 
10 258 
10 263 
10 272 
10 274 
10 296 
10 318 
10 357 
10 364 
10 367 
10 382 
11 222 
11 226 
11 227 
11 228 
11 230 
11 235 
11 236 
11 289 
11 290 
11 294 
11 317 
11 334 
11 341 
11 358 
12 201 
12 202 
12 219 
12 223 
12 238 
12 242 
12 248 
12 260 
12 261 
12 299 
12 312 
12 333 
12 368 
12 374 
13 206 
13 211 
13 227 
13 235 
13 236 
13 289 
13 290 
13 292 
13 308 
13 317 
13 328 
13 334 
13 341 
13 388 
14 213 
14 252 
14 262 
14 268 
14 270 
14 304 
14 324 
14 347 
14 351 
14 356 
14 360 
14 363 
14 376 
14 380 
15 198 
15 213 
15 243 
15 249 
15 252 
15 262 
15 268 
15 270 
15 280 
15 347 
15 356 
15 360 
15 380 
15 381 
16 198 
16 213 
16 239 
16 243 
16 249 
16 262 
16 264 
16 297 
16 347 
16 351 
16 356 
16 360 
16 361 
16 363 
17 204 
17 222 
17 226 
17 228 
17 230 
17 294 
17 295 
17 300 
17 305 
17 306 
17 344 
17 358 
17 372 
17 378 
18 197 
18 199 
18 210 
18 229 
18 237 
18 287 
18 291 
18 301 
18 314 
18 326 
18 335 
18 342 
18 350 
18 387 
19 203 
19 217 
19 233 
19 258 
19 265 
19 272 
19 274 
19 276 
19 296 
19 318 
19 357 
19 364 
19 367 
19 389 
20 199 
20 208 
20 210 
20 216 
20 229 
20 237 
20 255 
20 271 
20 301 
20 321 
20 326 
20 335 
20 342 
20 362 
21 197 
21 207 
21 210 
21 216 
21 237 
21 255 
21 257 
21 273 
21 279 
21 287 
21 321 
21 322 
21 362 
21 385 
22 199 
22 200 
22 207 
22 208 
22 255 
22 257 
22 273 
22 287 
22 293 
22 326 
22 350 
22 362 
22 385 
22 387 
23 201 
23 223 
23 238 
23 256 
23 260 
23 261 
23 299 
23 310 
23 312 
23 323 
23 333 
23 336 
23 368 
23 374 
24 197 
24 199 
24 207 
24 237 
24 273 
24 287 
24 293 
24 314 
24 326 
24 335 
24 350 
24 362 
24 385 
24 387 
25 203 
25 205 
25 217 
25 233 
25 245 
25 254 
25 263 
25 265 
25 274 
25 285 
25 296 
25 318 
25 367 
25 370 
26 200 
26 208 
26 210 
26 216 
26 229 
26 255 
26 257 
26 271 
26 279 
26 291 
26 301 
26 321 
26 322 
26 342 
27 221 
27 239 
27 249 
27 262 
27 264 
27 268 
27 304 
27 324 
27 329 
27 347 
27 351 
27 363 
27 365 
27 380 
28 205 
28 215 
28 233 
28 245 
28 254 
28 263 
28 285 
28 296 
28 318 
28 357 
28 359 
28 367 
28 369 
28 382 
29 220 
29 244 
29 275 
29 283 
29 303 
29 320 
29 331 
29 332 
29 355 
29 366 
29 379 
29 383 
29 386 
29 391 
30 231 
30 232 
30 251 
30 277 
30 283 
30 316 
30 319 
30 320 
30 327 
30 332 
30 355 
30 379 
30 383 
30 391 
31 204 
31 206 
31 211 
31 292 
31 295 
31 300 
31 305 
31 306 
31 308 
31 328 
31 344 
31 372 
31 378 
31 388 
32 197 
32 199 
32 200 
32 210 
32 229 
32 271 
32 291 
32 301 
32 314 
32 321 
32 322 
32 335 
32 342 
32 387 
33 203 
33 233 
33 234 
33 245 
33 258 
33 263 
33 265 
33 281 
33 318 
33 357 
33 359 
33 364 
33 369 
33 389 
34 222 
34 226 
34 227 
34 228 
34 230 
34 236 
34 290 
34 294 
34 300 
34 305 
34 306 
34 308 
34 317 
34 334 
35 212 
35 223 
35 242 
35 248 
35 256 
35 260 
35 261 
35 269 
35 278 
35 298 
35 299 
35 323 
35 338 
35 368 
36 215 
36 217 
36 245 
36 254 
36 263 
36 266 
36 285 
36 296 
36 352 
36 367 
36 369 
36 370 
36 382 
36 389 
37 201 
37 202 
37 219 
37 238 
37 242 
37 247 
37 248 
37 261 
37 278 
37 299 
37 312 
37 313 
37 333 
37 373 
38 224 
38 231 
38 232 
38 244 
38 283 
38 316 
38 319 
38 320 
38 327 
38 331 
38 332 
38 355 
38 379 
38 383 
39 201 
39 202 
39 219 
39 223 
39 238 
39 242 
39 247 
39 261 
39 269 
39 299 
39 310 
39 333 
39 368 
39 374 
40 212 
40 238 
40 256 
40 260 
40 261 
40 278 
40 310 
40 312 
40 313 
40 323 
40 333 
40 336 
40 345 
40 373 
41 209 
41 214 
41 218 
41 225 
41 240 
41 284 
41 288 
41 302 
41 309 
41 325 
41 340 
41 346 
41 353 
41 354 
42 224 
42 231 
42 244 
42 251 
42 283 
42 286 
42 319 
42 320 
42 327 
42 355 
42 366 
42 379 
42 383 
42 386 
43 203 
43 215 
43 234 
43 245 
43 254 
43 276 
43 281 
43 318 
43 352 
43 359 
43 364 
43 369 
43 370 
43 389 
44 203 
44 205 
44 233 
44 234 
44 258 
44 265 
44 272 
44 274 
44 276 
44 281 
44 318 
44 357 
44 359 
44 364 
45 226 
45 227 
45 230 
45 292 
45 295 
45 300 
45 305 
45 306 
45 328 
45 344 
45 358 
45 372 
45 378 
45 388 
46 231 
46 232 
46 277 
46 283 
46 303 
46 307 
46 316 
46 327 
46 331 
46 332 
46 379 
46 383 
46 390 
46 391 
47 220 
47 251 
47 275 
47 277 
47 286 
47 303 
47 307 
47 315 
47 339 
47 366 
47 386 
47 390 
47 391 
47 392 
48 201 
48 219 
48 248 
48 260 
48 269 
48 278 
48 298 
48 299 
48 313 
48 323 
48 336 
48 337 
48 338 
48 368 
49 204 
49 206 
49 211 
49 222 
49 235 
49 236 
49 290 
49 294 
49 305 
49 306 
49 308 
49 317 
49 334 
49 388 
50 220 
50 232 
50 275 
50 277 
50 303 
50 307 
50 315 
50 316 
50 331 
50 332 
50 339 
50 390 
50 391 
50 392 
51 205 
51 215 
51 233 
51 245 
51 254 
51 263 
51 266 
51 296 
51 359 
51 364 
51 367 
51 369 
51 370 
51 382 
52 213 
52 262 
52 264 
52 268 
52 270 
52 280 
52 304 
52 324 
52 329 
52 347 
52 351 
52 356 
52 361 
52 376 
53 218 
53 246 
53 253 
53 267 
53 284 
53 288 
53 302 
53 309 
53 311 
53 330 
53 343 
53 349 
53 353 
53 375 
54 205 
54 215 
54 233 
54 254 
54 266 
54 272 
54 274 
54 276 
54 281 
54 296 
54 359 
54 364 
54 370 
54 382 
55 198 
55 221 
55 239 
55 243 
55 249 
55 250 
55 252 
55 268 
55 280 
55 351 
55 356 
55 360 
55 361 
55 377 
56 203 
56 217 
56 234 
56 245 
56 258 
56 263 
56 265 
56 285 
56 318 
56 352 
56 357 
56 367 
56 369 
56 389 
57 198 
57 221 
57 239 
57 243 
57 249 
57 252 
57 262 
57 280 
57 297 
57 329 
57 356 
57 377 
57 380 
57 381 
58 220 
58 232 
58 244 
58 275 
58 303 
58 307 
58 315 
58 320 
58 331 
58 332 
58 339 
58 366 
58 383 
58 391 
59 201 
59 202 
59 219 
59 223 
59 242 
59 247 
59 248 
59 269 
59 298 
59 299 
59 337 
59 338 
59 368 
59 374 
60 199 
60 200 
60 207 
60 208 
60 210 
60 216 
60 229 
60 257 
60 271 
60 291 
60 314 
60 322 
60 342 
60 350 
61 203 
61 215 
61 233 
61 234 
61 258 
61 272 
61 276 
61 318 
61 359 
61 364 
61 367 
61 369 
61 370 
61 389 
62 204 
62 222 
62 226 
62 230 
62 235 
62 289 
62 290 
62 306 
62 308 
62 317 
62 328 
62 334 
62 372 
62 388 
63 209 
63 214 
63 240 
63 241 
63 246 
63 253 
63 259 
63 267 
63 282 
63 311 
63 353 
63 371 
63 375 
63 384 
64 205 
64 215 
64 217 
64 258 
64 263 
64 266 
64 272 
64 285 
64 296 
64 352 
64 367 
64 369 
64 370 
64 382 
65 209 
65 218 
65 240 
65 246 
65 253 
65 259 
65 267 
65 288 
65 302 
65 309 
65 346 
65 348 
65 349 
65 354 
66 208 
66 229 
66 237 
66 255 
66 279 
66 287 
66 291 
66 293 
66 301 
66 321 
66 322 
66 335 
66 385 
66 387 
67 224 
67 231 
67 251 
67 275 
67 277 
67 283 
67 286 
67 319 
67 355 
67 366 
67 379 
67 383 
67 386 
67 390 
68 199 
68 200 
68 208 
68 216 
68 229 
68 255 
68 257 
68 271 
68 291 
68 293 
68 301 
68 322 
68 342 
68 350 
69 204 
69 206 
69 211 
69 289 
69 290 
69 292 
69 295 
69 300 
69 306 
69 317 
69 328 
69 358 
69 372 
69 388 
70 197 
70 200 
70 207 
70 210 
70 229 
70 255 
70 257 
70 279 
70 287 
70 321 
70 322 
70 362 
70 385 
70 387 
71 199 
71 200 
71 208 
71 210 
71 216 
71 255 
71 257 
71 271 
71 273 
71 301 
71 321 
71 326 
71 342 
71 362 
72 220 
72 244 
72 275 
72 307 
72 316 
72 319 
72 331 
72 332 
72 339 
72 379 
72 386 
72 390 
72 391 
72 392 
73 197 
73 210 
73 216 
73 229 
73 237 
73 271 
73 279 
73 291 
73 301 
73 314 
73 321 
73 322 
73 335 
73 342 
74 209 
74 218 
74 225 
74 240 
74 241 
74 246 
74 253 
74 284 
74 309 
74 346 
74 349 
74 353 
74 354 
74 384 
75 209 
75 218 
75 225 
75 240 
75 259 
75 288 
75 309 
75 311 
75 325 
75 340 
75 348 
75 349 
75 375 
75 384 
76 198 
76 221 
76 249 
76 252 
76 262 
76 268 
76 270 
76 280 
76 304 
76 360 
76 365 
76 377 
76 380 
76 381 
77 198 
77 213 
77 243 
77 250 
77 252 
77 270 
77 280 
77 297 
77 356 
77 360 
77 361 
77 376 
77 377 
77 381 
78 212 
78 219 
78 238 
78 242 
78 260 
78 261 
78 269 
78 298 
78 299 
78 310 
78 313 
78 323 
78 373 
78 374 
79 205 
79 217 
79 233 
79 234 
79 254 
79 263 
79 265 
79 272 
79 274 
79 281 
79 285 
79 318 
79 357 
79 382 
80 204 
80 206 
80 211 
80 235 
80 289 
80 292 
80 295 
80 328 
80 341 
80 344 
80 358 
80 372 
80 378 
80 388 
81 220 
81 232 
81 244 
81 251 
81 275 
81 286 
81 303 
81 316 
81 339 
81 355 
81 379 
81 390 
81 391 
81 392 
82 220 
82 232 
82 244 
82 251 
82 275 
82 283 
82 315 
82 319 
82 320 
82 332 
82 355 
82 366 
82 383 
82 391 
83 226 
83 227 
83 228 
83 230 
83 289 
83 292 
83 295 
83 300 
83 328 
83 341 
83 344 
83 358 
83 372 
83 378 
84 198 
84 213 
84 239 
84 262 
84 264 
84 268 
84 280 
84 304 
84 329 
84 347 
84 351 
84 356 
84 376 
84 380 
85 220 
85 224 
85 244 
85 251 
85 275 
85 286 
85 315 
85 319 
85 320 
85 339 
85 355 
85 366 
85 386 
85 392 
86 198 
86 221 
86 239 
86 249 
86 262 
86 264 
86 297 
86 304 
86 329 
86 347 
86 351 
86 361 
86 363 
86 365 
87 224 
87 231 
87 251 
87 277 
87 286 
87 307 
87 315 
87 319 
87 320 
87 327 
87 339 
87 366 
87 383 
87 386 
88 224 
88 231 
88 232 
88 251 
88 277 
88 286 
88 307 
88 315 
88 316 
88 319 
88 327 
88 339 
88 390 
88 392 
89 221 
89 249 
89 250 
89 264 
89 268 
89 270 
89 280 
89 304 
89 324 
89 360 
89 361 
89 365 
89 377 
89 381 
90 224 
90 231 
90 232 
90 244 
90 251 
90 275 
90 303 
90 315 
90 332 
90 339 
90 355 
90 366 
90 390 
90 392 
91 220 
91 232 
91 244 
91 275 
91 283 
91 303 
91 316 
91 331 
91 332 
91 355 
91 379 
91 390 
91 391 
91 392 
92 212 
92 223 
92 238 
92 242 
92 256 
92 260 
92 261 
92 269 
92 310 
92 323 
92 333 
92 345 
92 373 
92 374 
93 200 
93 207 
93 208 
93 216 
93 255 
93 257 
93 271 
93 273 
93 279 
93 293 
93 321 
93 322 
93 362 
93 385 
94 201 
94 202 
94 223 
94 247 
94 248 
94 256 
94 278 
94 312 
94 333 
94 336 
94 337 
94 338 
94 345 
94 368 
95 204 
95 206 
95 222 
95 226 
95 235 
95 236 
95 289 
95 290 
95 294 
95 306 
95 334 
95 358 
95 378 
95 388 
96 218 
96 240 
96 241 
96 246 
96 253 
96 259 
96 267 
96 282 
96 302 
96 311 
96 343 
96 346 
96 349 
96 353 
97 220 
97 232 
97 244 
97 303 
97 307 
97 315 
97 316 
97 320 
97 327 
97 331 
97 332 
97 339 
97 391 
97 392 
98 220 
98 277 
98 283 
98 286 
98 307 
98 316 
98 319 
98 320 
98 327 
98 331 
98 379 
98 383 
98 386 
98 391 
99 198 
99 213 
99 243 
99 249 
99 252 
99 262 
99 268 
99 270 
99 360 
99 363 
99 365 
99 377 
99 380 
99 381 
100 203 
100 215 
100 245 
100 258 
100 266 
100 276 
100 296 
100 352 
100 359 
100 364 
100 367 
100 369 
100 370 
100 389 
101 211 
101 227 
101 228 
101 230 
101 292 
101 295 
101 300 
101 305 
101 308 
101 317 
101 328 
101 341 
101 344 
101 372 
102 213 
102 239 
102 243 
102 250 
102 264 
102 297 
102 324 
102 329 
102 347 
102 351 
102 356 
102 361 
102 363 
102 376 
103 211 
103 227 
103 230 
103 236 
103 290 
103 292 
103 300 
103 305 
103 328 
103 334 
103 341 
103 358 
103 378 
103 388 
104 202 
104 212 
104 238 
104 256 
104 260 
104 269 
104 278 
104 298 
104 299 
104 310 
104 313 
104 336 
104 337 
104 368 
105 218 
105 225 
105 284 
105 288 
105 302 
105 309 
105 325 
105 330 
105 340 
105 343 
105 346 
105 348 
105 349 
105 354 
106 198 
106 221 
106 239 
106 243 
106 249 
106 250 
106 264 
106 280 
106 297 
106 329 
106 361 
106 365 
106 377 
106 381 
107 214 
107 218 
107 225 
107 240 
107 282 
107 284 
107 288 
107 302 
107 311 
107 325 
107 340 
107 343 
107 353 
107 375 
108 201 
108 202 
108 219 
108 238 
108 248 
108 260 
108 261 
108 312 
108 313 
108 333 
108 336 
108 345 
108 373 
108 374 
109 199 
109 208 
109 216 
109 237 
109 271 
109 273 
109 291 
109 293 
109 301 
109 314 
109 326 
109 335 
109 342 
109 350 
110 206 
110 211 
110 222 
110 227 
110 235 
110 236 
110 289 
110 328 
110 334 
110 341 
110 344 
110 358 
110 378 
110 388 
111 198 
111 213 
111 239 
111 243 
111 252 
111 262 
111 297 
111 329 
111 347 
111 351 
111 356 
111 363 
111 376 
111 380 
112 197 
112 199 
112 200 
112 210 
112 216 
112 229 
112 255 
112 257 
112 287 
112 301 
112 321 
112 322 
112 342 
112 362 
113 206 
113 211 
113 227 
113 228 
113 236 
113 292 
113 294 
113 295 
113 300 
113 305 
113 341 
113 344 
113 358 
113 378 
114 198 
114 221 
114 243 
114 249 
114 252 
114 262 
114 270 
114 280 
114 297 
114 329 
114 347 
114 356 
114 361 
114 381 
115 224 
115 231 
115 277 
115 286 
115 303 
115 307 
115 316 
115 327 
115 331 
115 339 
115 379 
115 386 
115 390 
115 392 
116 209 
116 214 
116 225 
116 240 
116 241 
116 259 
116 282 
116 325 
116 340 
116 346 
116 348 
116 354 
116 371 
116 384 
117 209 
117 214 
117 246 
117 259 
117 267 
117 282 
117 288 
117 302 
117 311 
117 330 
117 340 
117 353 
117 371 
117 375 
118 202 
118 212 
118 219 
118 242 
118 247 
118 248 
118 269 
118 278 
118 298 
118 313 
118 337 
118 338 
118 345 
118 373 
119 205 
119 215 
119 217 
119 233 
119 234 
119 254 
119 272 
119 274 
119 276 
119 318 
119 364 
119 367 
119 370 
119 382 
120 240 
120 253 
120 267 
120 284 
120 288 
120 302 
120 309 
120 325 
120 343 
120 346 
120 348 
120 349 
120 354 
120 371 
121 212 
121 223 
121 242 
121 247 
121 256 
121 269 
121 278 
121 298 
121 299 
121 310 
121 323 
121 337 
121 338 
121 368 
122 214 
122 241 
122 246 
122 253 
122 267 
122 282 
122 284 
122 302 
122 330 
122 343 
122 346 
122 353 
122 354 
122 371 
123 225 
123 241 
123 253 
123 282 
123 284 
123 302 
123 311 
123 325 
123 330 
123 343 
123 349 
123 353 
123 371 
123 375 
124 220 
124 224 
124 232 
124 244 
124 286 
124 303 
124 315 
124 320 
124 327 
124 331 
124 339 
124 355 
124 366 
124 392 
125 201 
125 219 
125 223 
125 238 
125 260 
125 261 
125 298 
125 299 
125 310 
125 312 
125 323 
125 336 
125 373 
125 374 
126 209 
126 214 
126 218 
126 225 
126 241 
126 246 
126 259 
126 282 
126 311 
126 330 
126 340 
126 353 
126 375 
126 384 
127 221 
127 250 
127 252 
127 268 
127 270 
127 280 
127 304 
127 324 
127 329 
127 365 
127 376 
127 377 
127 380 
127 381 
128 213 
128 243 
128 250 
128 252 
128 268 
128 270 
128 280 
128 324 
128 356 
128 360 
128 376 
128 377 
128 380 
128 381 
129 202 
129 212 
129 219 
129 242 
129 247 
129 248 
129 261 
129 269 
129 278 
129 298 
129 299 
129 313 
129 338 
129 368 
130 213 
130 250 
130 264 
130 268 
130 270 
130 304 
130 324 
130 347 
130 351 
130 360 
130 361 
130 363 
130 365 
130 376 
131 213 
131 262 
131 264 
131 270 
131 297 
131 304 
131 324 
131 329 
131 347 
131 363 
131 365 
131 376 
131 380 
131 381 
132 221 
132 239 
132 250 
132 264 
132 297 
132 304 
132 324 
132 329 
132 351 
132 361 
132 363 
132 365 
132 376 
132 377 
133 211 
133 227 
133 228 
133 230 
133 235 
133 236 
133 289 
133 292 
133 295 
133 317 
133 328 
133 341 
133 344 
133 358 
134 199 
134 200 
134 208 
134 229 
134 271 
134 291 
134 293 
134 301 
134 314 
134 326 
134 335 
134 342 
134 350 
134 387 
135 204 
135 206 
135 222 
135 226 
135 290 
135 294 
135 300 
135 305 
135 306 
135 308 
135 334 
135 372 
135 378 
135 388 
136 218 
136 246 
136 267 
136 282 
136 284 
136 288 
136 302 
136 311 
136 330 
136 340 
136 343 
136 346 
136 349 
136 353 
137 205 
137 215 
137 217 
137 254 
137 266 
137 272 
137 274 
137 276 
137 285 
137 296 
137 352 
137 367 
137 370 
137 382 
138 209 
138 241 
138 246 
138 253 
138 259 
138 267 
138 309 
138 330 
138 346 
138 348 
138 349 
138 354 
138 371 
138 384 
139 221 
139 239 
139 249 
139 250 
139 252 
139 297 
139 304 
139 324 
139 347 
139 351 
139 360 
139 361 
139 363 
139 365 
140 209 
140 214 
140 225 
140 240 
140 241 
140 253 
140 259 
140 309 
140 325 
140 348 
140 354 
140 371 
140 375 
140 384 
141 204 
141 226 
141 228 
141 230 
141 290 
141 292 
141 294 
141 295 
141 300 
141 305 
141 306 
141 308 
141 317 
141 372 
142 204 
142 211 
142 222 
142 228 
142 230 
142 236 
142 290 
142 294 
142 295 
142 300 
142 305 
142 306 
142 308 
142 317 
143 205 
143 217 
143 233 
143 258 
143 263 
143 265 
143 266 
143 272 
143 274 
143 285 
143 296 
143 357 
143 367 
143 382 
144 203 
144 217 
144 234 
144 258 
144 265 
144 266 
144 272 
144 274 
144 276 
144 281 
144 352 
144 364 
144 370 
144 389 
145 218 
145 225 
145 240 
145 241 
145 253 
145 284 
145 309 
145 325 
145 343 
145 346 
145 348 
145 349 
145 354 
145 384 
146 241 
146 246 
146 253 
146 259 
146 267 
146 282 
146 311 
146 330 
146 343 
146 348 
146 349 
146 371 
146 375 
146 384 
147 197 
147 200 
147 207 
147 216 
147 255 
147 273 
147 279 
147 287 
147 293 
147 322 
147 335 
147 342 
147 350 
147 362 
148 241 
148 246 
148 259 
148 267 
148 282 
148 302 
148 311 
148 330 
148 340 
148 343 
148 346 
148 348 
148 349 
148 371 
149 202 
149 212 
149 248 
149 256 
149 260 
149 312 
149 313 
149 333 
149 336 
149 337 
149 338 
149 345 
149 368 
149 374 
150 213 
150 239 
150 250 
150 264 
150 268 
150 304 
150 324 
150 351 
150 360 
150 363 
150 365 
150 376 
150 377 
150 380 
151 220 
151 232 
151 244 
151 251 
151 283 
151 286 
151 303 
151 315 
151 320 
151 327 
151 355 
151 366 
151 391 
151 392 
152 224 
152 231 
152 251 
152 277 
152 283 
152 286 
152 316 
152 319 
152 327 
152 355 
152 379 
152 386 
152 390 
152 392 
153 224 
153 231 
153 275 
153 277 
153 307 
153 316 
153 319 
153 331 
153 332 
153 339 
153 379 
153 383 
153 386 
153 390 
154 224 
154 231 
154 232 
154 251 
154 277 
154 283 
154 286 
154 303 
154 315 
154 320 
154 327 
154 355 
154 366 
154 383 
155 197 
155 207 
155 210 
155 237 
155 273 
155 279 
155 287 
155 314 
155 321 
155 326 
155 335 
155 362 
155 385 
155 387 
156 207 
156 208 
156 237 
156 271 
156 273 
156 279 
156 291 
156 293 
156 314 
156 326 
156 335 
156 350 
156 385 
156 387 
157 224 
157 231 
157 277 
157 283 
157 307 
157 315 
157 319 
157 320 
157 327 
157 331 
157 332 
157 366 
157 383 
157 386 
158 206 
158 226 
158 227 
158 235 
158 289 
158 292 
158 328 
158 334 
158 341 
158 344 
158 358 
158 372 
158 378 
158 388 
159 205 
159 215 
159 234 
159 245 
159 254 
159 263 
159 266 
159 281 
159 285 
159 352 
159 359 
159 369 
159 370 
159 382 
160 212 
160 223 
160 256 
160 260 
160 269 
160 298 
160 310 
160 323 
160 336 
160 337 
160 338 
160 345 
160 368 
160 374 
161 221 
161 243 
161 249 
161 250 
161 252 
161 270 
161 297 
161 324 
161 360 
161 361 
161 363 
161 365 
161 377 
161 381 
162 231 
162 251 
162 275 
162 277 
162 283 
162 307 
162 316 
162 319 
162 332 
162 379 
162 383 
162 386 
162 390 
162 391 
163 221 
163 239 
163 250 
163 264 
163 280 
163 297 
163 304 
163 324 
163 329 
163 347 
163 351 
163 356 
163 361 
163 376 
164 199 
164 208 
164 210 
164 229 
164 237 
164 257 
164 271 
164 291 
164 301 
164 314 
164 321 
164 326 
164 385 
164 387 
165 202 
165 212 
165 242 
165 247 
165 248 
165 256 
165 269 
165 278 
165 313 
165 333 
165 337 
165 338 
165 345 
165 368 
166 204 
166 206 
166 226 
166 228 
166 289 
166 290 
166 292 
166 294 
166 300 
166 306 
166 308 
166 334 
166 372 
166 378 
167 198 
167 221 
167 239 
167 243 
167 249 
167 250 
167 252 
167 297 
167 360 
167 363 
167 365 
167 377 
167 380 
167 381 
168 209 
168 214 
168 218 
168 240 
168 246 
168 259 
168 267 
168 288 
168 309 
168 340 
168 346 
168 348 
168 354 
168 384 
169 203 
169 234 
169 245 
169 254 
169 265 
169 266 
169 276 
169 281 
169 285 
169 352 
169 359 
169 369 
169 370 
169 389 
170 203 
170 205 
170 233 
170 234 
170 258 
170 265 
170 266 
170 272 
170 276 
170 359 
170 364 
170 367 
170 369 
170 370 
171 197 
171 207 
171 229 
171 237 
171 279 
171 287 
171 291 
171 293 
171 314 
171 322 
171 335 
171 350 
171 385 
171 387 
172 220 
172 224 
172 244 
172 275 
172 286 
172 303 
172 307 
172 315 
172 331 
172 339 
172 366 
172 386 
172 390 
172 392 
173 211 
173 222 
173 227 
173 230 
173 235 
173 236 
173 295 
173 305 
173 317 
173 328 
173 341 
173 344 
173 358 
173 388 
174 215 
174 234 
174 258 
174 266 
174 272 
174 276 
174 281 
174 352 
174 357 
174 359 
174 364 
174 369 
174 382 
174 389 
175 206 
175 211 
175 227 
175 236 
175 289 
175 290 
175 292 
175 300 
175 306 
175 328 
175 334 
175 358 
175 378 
175 388 
176 214 
176 225 
176 241 
176 282 
176 284 
176 311 
176 325 
176 330 
176 340 
176 343 
176 353 
176 371 
176 375 
176 384 
177 212 
177 248 
177 256 
177 260 
177 278 
177 298 
177 312 
177 313 
177 323 
177 336 
177 337 
177 338 
177 345 
177 373 
178 214 
178 259 
178 267 
178 282 
178 288 
178 302 
178 311 
178 325 
178 330 
178 340 
178 343 
178 348 
178 371 
178 375 
179 201 
179 202 
179 219 
179 238 
179 247 
179 310 
179 312 
179 313 
179 333 
179 336 
179 337 
179 345 
179 373 
179 374 
180 197 
180 200 
180 207 
180 257 
180 273 
180 279 
180 287 
180 291 
180 293 
180 314 
180 322 
180 350 
180 385 
180 387 
181 215 
181 217 
181 245 
181 254 
181 263 
181 274 
181 281 
181 285 
181 296 
181 318 
181 352 
181 357 
181 382 
181 389 
182 197 
182 200 
182 229 
182 255 
182 271 
182 279 
182 293 
182 301 
182 321 
182 322 
182 335 
182 362 
182 385 
182 387 
183 202 
183 212 
183 223 
183 238 
183 242 
183 247 
183 256 
183 261 
183 310 
183 312 
183 333 
183 345 
183 373 
183 374 
184 222 
184 226 
184 227 
184 228 
184 230 
184 235 
184 236 
184 294 
184 305 
184 308 
184 334 
184 341 
184 344 
184 378 
185 201 
185 219 
185 223 
185 238 
185 242 
185 247 
185 261 
185 269 
185 278 
185 298 
185 299 
185 310 
185 323 
185 373 
186 209 
186 218 
186 225 
186 240 
186 241 
186 246 
186 253 
186 259 
186 282 
186 346 
186 348 
186 349 
186 354 
186 384 
187 203 
187 217 
187 234 
187 258 
187 265 
187 272 
187 274 
187 276 
187 281 
187 285 
187 318 
187 352 
187 357 
187 389 
188 197 
188 237 
188 255 
188 273 
188 279 
188 287 
188 293 
188 301 
188 321 
188 326 
188 335 
188 362 
188 385 
188 387 
189 214 
189 267 
189 284 
189 288 
189 302 
189 309 
189 311 
189 325 
189 330 
189 340 
189 343 
189 353 
189 371 
189 375 
190 209 
190 214 
190 218 
190 225 
190 240 
190 253 
190 284 
190 288 
190 309 
190 325 
190 353 
190 354 
190 375 
190 384 
191 197 
191 199 
191 200 
191 207 
191 210 
191 216 
191 257 
191 271 
191 273 
191 314 
191 326 
191 342 
191 350 
191 362 
192 198 
192 213 
192 243 
192 262 
192 264 
192 268 
192 270 
192 280 
192 329 
192 356 
192 376 
192 377 
192 380 
192 381 
193 201 
193 219 
193 223 
193 242 
193 247 
193 248 
193 261 
193 312 
193 323 
193 333 
193 338 
193 345 
193 373 
193 374 
194 207 
194 208 
194 216 
194 237 
194 255 
194 257 
194 273 
194 279 
194 287 
194 293 
194 326 
194 350 
194 362 
194 385 
195 201 
195 223 
195 238 
195 256 
195 260 
195 310 
195 312 
195 323 
195 333 
195 336 
195 337 
195 345 
195 373 
195 374 
196 203 
196 245 
196 258 
196 263 
196 265 
196 266 
196 281 
196 285 
196 296 
196 352 
196 357 
196 359 
196 369 
196 389 
